NAME : mtspf
TYPE : ATSP
DIMENSION : 5
EDGE_WEIGHT_TYPE : EXPLICIT
EDGE_WEIGHT_FORMAT : FULL_MATRIX
EDGE_WEIGHT_SECTION
99999 -1 99999 0 0 
6 99999 99999 0 0 
3 5 99999 0 99999 
7 3 99999 99999 0 
-1 4 99999 99999 99999 
EOF
